data;


param d:= 100;
param r:=5;
param p:=0.740000;
param M:=1000;
param U:=
         1         1       -7.274388e-02
         2         1       -1.674797e-02
         3         1       -4.968033e-01
         4         1        6.782944e-01
         5         1        8.331670e-01
         6         1        1.522121e+00
         7         1        1.150137e+00
         8         1        7.363746e-01
         9         1        1.654334e+00
        10         1       -8.650600e-01
        11         1       -1.364185e+00
        12         1        4.197889e-01
        13         1       -9.695257e-01
        14         1        1.107832e+00
        15         1       -2.499186e+00
        16         1        5.415928e-01
        17         1        1.149076e+00
        18         1        1.342949e-02
        19         1        2.740188e-01
        20         1       -2.495655e-01
        21         1       -1.740101e-01
        22         1        8.855513e-01
        23         1        9.520881e-01
        24         1        6.049341e-01
        25         1        2.359367e-01
        26         1       -6.703642e-01
        27         1        1.465967e+00
        28         1        8.276747e-01
        29         1       -1.718539e+00
        30         1       -1.517082e+00
        31         1        6.337082e-01
        32         1       -1.962070e-01
        33         1       -5.568590e-01
        34         1        9.227945e-02
        35         1       -3.790770e-01
        36         1       -2.182020e-01
        37         1        3.020137e-01
        38         1       -9.001216e-02
        39         1       -4.386483e-01
        40         1        6.793077e-04
        41         1        2.002771e+00
        42         1        1.049002e+00
        43         1        8.993875e-02
        44         1        1.310157e+00
        45         1        2.876856e-01
        46         1       -2.633791e-01
        47         1        1.372233e+00
        48         1       -4.892270e-01
        49         1       -2.254984e+00
        50         1        4.439403e-01
        51         1        7.338475e-01
        52         1        2.132554e-01
        53         1       -4.518968e-01
        54         1       -1.592169e+00
        55         1       -4.865237e-01
        56         1       -1.247147e+00
        57         1        1.227807e+00
        58         1        7.133122e-01
        59         1        6.349302e-02
        60         1        2.165681e+00
        61         1       -1.533629e+00
        62         1       -4.217351e-01
        63         1       -1.720574e+00
        64         1        6.650686e-01
        65         1       -2.473895e+00
        66         1        1.792863e+00
        67         1       -1.045438e+00
        68         1       -2.369983e-01
        69         1       -3.080989e-01
        70         1       -3.534672e-01
        71         1        7.471518e-01
        72         1        2.067620e-01
        73         1        1.574064e-01
        74         1       -7.008036e-01
        75         1        9.673670e-01
        76         1        4.443059e-01
        77         1       -7.678163e-01
        78         1        6.489161e-01
        79         1        2.337118e+00
        80         1       -1.595417e+00
        81         1       -1.308578e+00
        82         1        7.851012e-01
        83         1        2.895494e-01
        84         1       -3.810115e-01
        85         1       -1.147071e-01
        86         1       -4.420128e-01
        87         1        9.152254e-01
        88         1       -1.688711e+00
        89         1       -4.091304e-02
        90         1        1.384430e+00
        91         1        1.114320e+00
        92         1        9.010205e-01
        93         1        2.264598e+00
        94         1       -3.426784e-01
        95         1       -2.315676e-01
        96         1        2.617570e-01
        97         1        5.041922e-01
        98         1        4.337159e-01
        99         1       -1.800107e-01
       100         1        5.592848e-01
         1         2       -1.180021e+00
         2         2       -1.110165e+00
         3         2       -8.514088e-01
         4         2        1.821384e-03
         5         2       -9.932390e-01
         6         2        3.332663e+00
         7         2       -1.827732e+00
         8         2       -1.395598e+00
         9         2       -3.861348e-01
        10         2       -2.056330e-01
        11         2        1.005396e+00
        12         2        2.846411e-01
        13         2        7.089473e-01
        14         2        1.269598e+00
        15         2        5.568091e-01
        16         2        2.550561e+00
        17         2       -2.569873e+00
        18         2       -5.171849e-01
        19         2        5.735652e-01
        20         2       -1.120155e+00
        21         2        9.540838e-01
        22         2        1.146570e+00
        23         2       -6.731203e-01
        24         2        6.079769e-02
        25         2       -1.735221e+00
        26         2       -4.812646e-01
        27         2        1.132015e+00
        28         2        1.050169e+00
        29         2        1.104890e+00
        30         2       -4.298123e-01
        31         2        3.075866e-01
        32         2       -1.024728e+00
        33         2        1.828190e-02
        34         2       -5.368214e-01
        35         2        1.064430e+00
        36         2        5.648047e-01
        37         2       -1.933204e-01
        38         2       -1.201917e+00
        39         2       -2.248065e+00
        40         2        5.915724e-01
        41         2       -2.088007e+00
        42         2        1.042183e-01
        43         2       -7.136796e-01
        44         2        1.012465e+00
        45         2        3.112215e-01
        46         2        3.784172e-02
        47         2        1.704968e-01
        48         2       -7.668601e-02
        49         2        1.511552e+00
        50         2        9.399077e-01
        51         2        4.436856e-01
        52         2       -1.244076e-01
        53         2        2.836262e+00
        54         2       -6.602672e-01
        55         2       -3.039429e-01
        56         2       -6.690452e-01
        57         2       -6.030416e-02
        58         2        5.221532e-01
        59         2        2.539955e-01
        60         2        5.697766e-02
        61         2       -1.281485e+00
        62         2       -8.510872e-01
        63         2        6.868435e-01
        64         2        1.334602e-01
        65         2        5.261872e-01
        66         2        4.287577e-01
        67         2       -4.680072e-01
        68         2        1.378672e+00
        69         2        5.796498e-01
        70         2        5.057459e-01
        71         2       -1.997040e-01
        72         2        8.038740e-01
        73         2        5.944276e-01
        74         2        4.024531e-02
        75         2        9.498663e-01
        76         2        2.252030e-01
        77         2        1.762734e-02
        78         2        9.048140e-01
        79         2       -1.847909e-02
        80         2        1.039239e+00
        81         2        9.207462e-01
        82         2       -6.733033e-01
        83         2       -3.473512e-01
        84         2       -6.965704e-01
        85         2        2.545489e-01
        86         2        9.985364e-01
        87         2        2.535934e-01
        88         2        4.276323e-01
        89         2       -2.365888e-01
        90         2       -1.176192e+00
        91         2        6.012468e-01
        92         2        5.967380e-01
        93         2       -1.848800e-01
        94         2       -6.494998e-01
        95         2        1.466922e+00
        96         2       -3.018287e-01
        97         2       -9.311686e-01
        98         2       -7.406956e-01
        99         2       -1.321032e+00
       100         2        2.564426e-01
         1         3       -8.519394e-01
         2         3        6.057422e-01
         3         3       -5.647995e-01
         4         3        1.086458e+00
         5         3        1.813682e+00
         6         3       -5.642493e-01
         7         3        9.713988e-01
         8         3       -7.353042e-01
         9         3       -1.134677e+00
        10         3       -2.353080e-01
        11         3       -1.040287e+00
        12         3       -1.655606e+00
        13         3       -8.758446e-01
        14         3       -1.218633e+00
        15         3        1.133101e+00
        16         3       -4.048342e-01
        17         3        5.147743e-01
        18         3        6.614956e-02
        19         3       -5.036339e-01
        20         3        1.310246e+00
        21         3        2.081995e+00
        22         3       -2.334903e+00
        23         3       -4.607131e-01
        24         3        6.408729e-01
        25         3        7.771040e-01
        26         3        1.075162e-01
        27         3       -6.397880e-01
        28         3        2.315955e-01
        29         3        1.015285e+00
        30         3        8.251565e-01
        31         3        4.239253e-02
        32         3        3.846046e-01
        33         3       -7.142710e-01
        34         3        1.201257e+00
        35         3       -8.711618e-01
        36         3        1.801867e+00
        37         3       -4.002127e-01
        38         3        4.792300e-01
        39         3        1.680746e+00
        40         3       -1.040594e-01
        41         3       -1.870923e+00
        42         3        2.953071e-01
        43         3        5.281958e-01
        44         3        4.621126e-01
        45         3        1.316942e+00
        46         3        1.504239e+00
        47         3       -1.742657e-01
        48         3        3.226937e-01
        49         3       -9.273858e-01
        50         3       -2.694343e+00
        51         3       -6.209841e-01
        52         3       -1.369817e-01
        53         3       -5.104104e-01
        54         3        1.494756e+00
        55         3       -1.811410e+00
        56         3       -1.116814e+00
        57         3       -1.382221e+00
        58         3       -1.393872e+00
        59         3        2.340350e-01
        60         3       -1.050797e+00
        61         3        8.660432e-01
        62         3       -1.880906e+00
        63         3       -3.876370e-01
        64         3       -1.381798e+00
        65         3       -2.609666e-01
        66         3        4.713830e-01
        67         3        1.784360e+00
        68         3       -2.708159e+00
        69         3       -6.259124e-01
        70         3        3.399646e-01
        71         3        8.169487e-01
        72         3        2.328464e+00
        73         3       -3.371798e-01
        74         3       -5.612255e-01
        75         3        1.762366e-01
        76         3       -1.573502e+00
        77         3        1.165222e+00
        78         3       -4.562726e-01
        79         3       -6.588225e-01
        80         3        1.353833e+00
        81         3       -1.064010e-01
        82         3       -1.499362e+00
        83         3       -8.169582e-01
        84         3       -6.447191e-01
        85         3        6.807929e-01
        86         3       -6.198183e-02
        87         3        2.053337e+00
        88         3       -1.161007e+00
        89         3        1.055196e+00
        90         3        6.657545e-02
        91         3       -1.142531e+00
        92         3       -1.778731e+00
        93         3       -1.228958e+00
        94         3        1.298712e+00
        95         3       -7.723730e-01
        96         3        4.385335e-01
        97         3       -1.007803e+00
        98         3       -8.247095e-01
        99         3       -1.348232e+00
       100         3       -1.806268e-01
         1         4       -4.301058e-01
         2         4       -1.965109e-01
         3         4       -2.339516e+00
         4         4        1.427468e+00
         5         4       -5.486474e-01
         6         4       -1.829219e+00
         7         4        2.326072e+00
         8         4        1.037537e+00
         9         4       -5.287311e-01
        10         4        6.984667e-01
        11         4       -3.925533e-01
        12         4       -1.215538e+00
        13         4       -5.497399e-01
        14         4        5.490529e-01
        15         4       -2.398841e-01
        16         4       -1.008885e+00
        17         4        9.728390e-01
        18         4       -3.673621e-01
        19         4       -2.774698e-01
        20         4       -3.492543e-02
        21         4        1.543348e+00
        22         4        3.031304e-01
        23         4       -1.142292e-01
        24         4        1.829057e-01
        25         4        1.439861e+00
        26         4        8.402070e-01
        27         4        3.101943e-01
        28         4       -2.453487e-02
        29         4        6.120772e-01
        30         4        1.580868e-02
        31         4       -3.183367e-01
        32         4        1.508065e+00
        33         4        1.393446e+00
        34         4       -4.471628e-01
        35         4        1.643509e+00
        36         4       -7.041616e-01
        37         4       -1.818262e+00
        38         4        9.114862e-01
        39         4       -8.254243e-01
        40         4       -7.948930e-01
        41         4       -1.832487e+00
        42         4       -1.032176e+00
        43         4        1.925415e+00
        44         4        4.747179e-01
        45         4        3.808572e-01
        46         4        5.284188e-01
        47         4       -2.733007e-02
        48         4        5.657528e-01
        49         4       -1.732664e-01
        50         4       -6.975847e-01
        51         4       -9.332245e-01
        52         4       -4.673669e-02
        53         4        2.813966e-02
        54         4        1.513869e+00
        55         4        4.806724e-01
        56         4       -5.263124e-01
        57         4       -2.428490e+00
        58         4       -3.749534e-01
        59         4       -3.848174e-01
        60         4       -9.180906e-01
        61         4       -4.444507e-01
        62         4       -6.265222e-01
        63         4       -2.368136e-01
        64         4       -5.584658e-02
        65         4       -1.058434e+00
        66         4       -9.717475e-01
        67         4       -5.208651e-01
        68         4       -2.000876e+00
        69         4        1.008103e+00
        70         4        1.170462e+00
        71         4       -1.936459e-01
        72         4       -6.768431e-01
        73         4        2.190239e-01
        74         4        1.556465e+00
        75         4       -1.408542e+00
        76         4       -1.209602e-01
        77         4        7.759620e-01
        78         4        1.949461e-01
        79         4        2.465338e-01
        80         4       -6.957732e-01
        81         4       -2.642399e-01
        82         4        5.426795e-01
        83         4       -1.365406e-01
        84         4       -9.546668e-01
        85         4       -3.180847e-01
        86         4       -7.569036e-01
        87         4       -2.310227e-01
        88         4       -1.196463e-01
        89         4        3.979474e-01
        90         4       -2.371849e+00
        91         4       -9.607489e-01
        92         4       -4.039345e-01
        93         4        1.345823e+00
        94         4       -1.935137e+00
        95         4        1.281458e+00
        96         4       -2.192280e+00
        97         4        1.201007e+00
        98         4       -1.022752e+00
        99         4        3.829544e-01
       100         4        5.735599e-02
         1         5       -4.645352e-01
         2         5       -1.391298e+00
         3         5        9.438953e-01
         4         5        4.137206e-04
         5         5        9.945371e-01
         6         5        2.262897e-01
         7         5       -9.505509e-01
         8         5        1.800869e+00
         9         5       -1.906085e-01
        10         5        2.149372e+00
        11         5       -3.146909e-01
        12         5       -6.689894e-01
        13         5       -4.965501e-01
        14         5        6.396259e-01
        15         5        6.602568e-01
        16         5        1.664819e+00
        17         5        7.253794e-02
        18         5        4.315050e-01
        19         5       -1.925318e-01
        20         5       -9.337475e-01
        21         5       -2.790848e-01
        22         5       -1.500395e+00
        23         5        5.816437e-01
        24         5        6.103986e-01
        25         5        1.466032e-01
        26         5        1.521542e-02
        27         5        3.753000e-01
        28         5       -1.878013e+00
        29         5       -5.308356e-01
        30         5       -6.295982e-01
        31         5       -1.344115e+00
        32         5        4.260747e-01
        33         5       -7.128139e-01
        34         5        4.547248e-01
        35         5       -5.575993e-01
        36         5        4.794802e-01
        37         5        7.098067e-01
        38         5        3.338966e-01
        39         5        1.566297e+00
        40         5        1.907841e+00
        41         5       -1.507710e+00
        42         5        7.370131e-01
        43         5       -1.563248e-01
        44         5       -4.340816e-01
        45         5        2.596582e-01
        46         5        1.171080e+00
        47         5        4.748928e-01
        48         5       -5.627710e-01
        49         5       -1.927059e+00
        50         5       -8.113166e-01
        51         5        9.429499e-01
        52         5       -4.043823e-01
        53         5        1.843811e+00
        54         5        6.379219e-02
        55         5        2.048622e-01
        56         5       -8.586225e-01
        57         5       -1.591115e-01
        58         5       -2.042005e+00
        59         5        3.165987e-01
        60         5       -1.242955e+00
        61         5        1.681495e+00
        62         5        2.282418e-01
        63         5       -2.814728e-01
        64         5       -8.891886e-02
        65         5       -4.330187e-01
        66         5        6.959326e-01
        67         5        3.150061e-01
        68         5        6.648924e-01
        69         5       -6.313998e-01
        70         5       -1.848907e+00
        71         5        4.108501e-01
        72         5       -7.796646e-01
        73         5        3.728475e-01
        74         5       -7.998076e-01
        75         5        1.174602e+00
        76         5        1.108155e-01
        77         5       -1.308633e+00
        78         5        7.115959e-01
        79         5        1.467062e-02
        80         5        5.411371e-01
        81         5       -1.170108e+00
        82         5        1.390105e+00
        83         5        4.564963e-01
        84         5       -5.077066e-01
        85         5        7.566181e-01
        86         5        2.720428e-01
        87         5        1.081835e-01
        88         5        7.273977e-01
        89         5        2.057068e+00
        90         5       -7.794440e-01
        91         5       -8.955981e-01
        92         5       -1.033191e+00
        93         5        4.984778e-02
        94         5        8.197131e-01
        95         5       -4.983402e-01
        96         5       -2.482735e+00
        97         5        6.217866e-01
        98         5        1.154908e+00
        99         5       -5.767654e-01
       100         5       -9.190339e-03
;

param theta:=
    1        3.709410e-01
    2        1.095613e+00
    3       -3.489249e-01
    4       -5.192571e-01
    5       -1.029598e+00
;
param X_true:=
    1       -3.214608e-01
    2        1.008641e-01
    3       -6.774244e-01
    4       -8.672811e-01
    5       -2.151607e+00
    6        5.130879e+00
    7       -2.144149e+00
    8       -3.393191e+00
    9        1.056502e+00
   10       -3.039812e+00
   11        1.487807e+00
   12        2.366840e+00
   13        1.520626e+00
   14        1.284132e+00
   15       -1.267566e+00
   16        1.947429e+00
   17       -3.148660e+00
   18       -8.378203e-01
   19        1.247732e+00
   20       -7.984957e-01
   21       -2.595105e-01
   22        3.786076e+00
   23       -7.645509e-01
   24       -6.559364e-01
   25       -2.982994e+00
   26       -1.266548e+00
   27        1.456945e+00
   28        3.322880e+00
   29        4.467582e-01
   30       -6.818256e-01
   31        2.106149e+00
   32       -2.552912e+00
   33        7.207988e-02
   34       -1.208724e+00
   35        1.049696e+00
   36       -2.193550e-01
   37        2.530348e-01
   38       -2.334442e+00
   39       -4.396520e+00
   40       -8.678065e-01
   41        1.611047e+00
   42        1.782955e-01
   43       -1.772567e+00
   44        1.636625e+00
   45       -4.759970e-01
   46       -2.061160e+00
   47        2.812091e-01
   48       -9.310106e-02
   49        3.216916e+00
   50        3.331150e+00
   51        4.903524e-01
   52        4.298014e-01
   53        1.205512e+00
   54       -2.686832e+00
   55       -3.419672e-01
   56        3.506796e-01
   57        2.295642e+00
   58        3.619858e+00
   59        9.399077e-02
   60        2.989545e+00
   61       -3.774501e+00
   62       -3.408038e-01
   63        6.638079e-01
   64        9.953602e-01
   65        7.461840e-01
   66        7.575918e-01
   67       -1.577857e+00
   68        2.723631e+00
   69        8.669449e-01
   70        1.600962e+00
   71       -5.476931e-01
   72        1.297769e+00
   73        3.302926e-01
   74       -4.397561e-03
   75        8.593597e-01
   76        9.120980e-01
   77        2.709546e-01
   78        5.556842e-01
   79        9.325375e-01
   80       -1.222556e-01
   81        1.903120e+00
   82       -1.635899e+00
   83       -3.858874e-01
   84        3.390710e-01
   85       -6.147723e-01
   86        1.064330e+00
   87       -9.005307e-02
   88       -4.389905e-01
   89       -2.965961e+00
   90        1.235886e+00
   91        2.892182e+00
   92        2.883276e+00
   93        3.153663e-01
   94       -1.130321e+00
   95        1.637651e+00
   96        3.307894e+00
   97       -1.744537e+00
   98       -1.021141e+00
   99       -6.481944e-01
  100        5.326459e-01
;
param X:=
    1        1.639171e-01
    2       -1.940491e+00
    3       -1.386085e+00
    4        2.366178e-01
    5        3.195474e-01
    6       -3.043390e-02
    7       -1.239394e+00
    8       -3.393191e+00
    9        3.334947e-01
   10       -2.652027e-01
   11        9.879871e-01
   12        2.744810e-01
   13        1.520626e+00
   14       -5.918924e-01
   15       -4.742738e-01
   16        1.849520e+00
   17       -3.148660e+00
   18       -8.378203e-01
   19        1.416404e+00
   20       -7.984957e-01
   21        1.467858e+00
   22       -5.149194e-01
   23        1.937356e+00
   24       -6.559364e-01
   25        8.002771e-01
   26       -4.181362e-01
   27       -1.733343e+00
   28        4.810975e-01
   29        4.467582e-01
   30       -1.678765e+00
   31       -2.414204e-01
   32        1.170728e+00
   33        7.207988e-02
   34       -1.208724e+00
   35        1.049696e+00
   36        6.612849e-01
   37        2.530348e-01
   38        5.130086e-01
   39       -1.243443e+00
   40       -4.484851e-01
   41        7.971822e-03
   42        1.203154e+00
   43        2.842056e-01
   44        1.636625e+00
   45        3.802670e-01
   46       -8.669748e-02
   47        2.812091e-01
   48        1.056098e-01
   49        3.216916e+00
   50       -8.860092e-01
   51       -9.755514e-01
   52       -2.519601e-02
   53        9.289810e-01
   54        1.802770e-02
   55       -1.886538e-01
   56        2.971985e-01
   57       -1.099068e+00
   58        3.619858e+00
   59        9.399077e-02
   60        1.053055e+00
   61        1.857193e-01
   62       -2.199820e+00
   63        1.249722e+00
   64        1.180026e+00
   65        7.461840e-01
   66       -2.161843e-01
   67       -8.564111e-03
   68       -1.029413e-01
   69       -3.365024e-01
   70        1.600962e+00
   71       -5.476931e-01
   72        1.297769e+00
   73       -2.665777e-01
   74       -5.071411e-01
   75       -3.096601e-01
   76        1.574534e-01
   77       -2.009768e+00
   78        5.855899e-01
   79        2.273302e+00
   80       -5.515103e-01
   81        1.903120e+00
   82       -4.689410e-01
   83       -3.858874e-01
   84       -3.738607e-01
   85       -6.147723e-01
   86       -6.391988e-01
   87       -1.885826e+00
   88        6.554938e-01
   89       -1.486890e+00
   90       -6.683461e-01
   91       -1.827305e+00
   92       -2.340432e-01
   93       -6.043059e-01
   94        3.476647e-01
   95        3.219741e-02
   96        3.307894e+00
   97       -1.011098e-01
   98       -1.195210e+00
   99       -6.481944e-01
  100        5.326459e-01
;
param outliervec:=
    1    1
    2    1
    3    1
    4    1
    5    1
    6    1
    7    1
    8    0
    9    1
   10    1
   11    1
   12    1
   13    0
   14    1
   15    1
   16    1
   17    0
   18    0
   19    1
   20    0
   21    1
   22    1
   23    1
   24    0
   25    1
   26    1
   27    1
   28    1
   29    0
   30    1
   31    1
   32    1
   33    0
   34    0
   35    0
   36    1
   37    0
   38    1
   39    1
   40    1
   41    1
   42    1
   43    1
   44    0
   45    1
   46    1
   47    0
   48    1
   49    0
   50    1
   51    1
   52    1
   53    1
   54    1
   55    1
   56    1
   57    1
   58    0
   59    0
   60    1
   61    1
   62    1
   63    1
   64    1
   65    0
   66    1
   67    1
   68    1
   69    1
   70    0
   71    0
   72    0
   73    1
   74    1
   75    1
   76    1
   77    1
   78    1
   79    1
   80    1
   81    0
   82    1
   83    0
   84    1
   85    0
   86    1
   87    1
   88    1
   89    1
   90    1
   91    1
   92    1
   93    1
   94    1
   95    1
   96    0
   97    1
   98    1
   99    0
  100    0
;